ampl/jpeg.dat
data;

set VERTICAL := 0 1 2 3 4 5 6 7;

set HORIZONTAL :=  0 1 2 3 4 5 6 7;

param alpha :=
  0 0.3535533905932738
  1 0.5
  2 0.5
  3 0.5
  4 0.5
  5 0.5
  6 0.5
  7 0.5;

param PI := 3.14159265358979;

